10
1 0 10
3 1 15
3 2 37
4 0 127
4 1 63
4 2 68
5 0 104
5 1 144
5 3 108
5 4 105
6 0 140
6 1 106
6 2 125
6 3 160
6 4 27
6 5 159
7 0 56
7 2 21
7 3 1
7 4 90
7 5 11
7 6 31
8 0 44
8 1 123
8 2 17
8 3 28
8 4 132
8 5 114
8 6 38
9 1 71
9 2 106
9 3 53
9 4 92
9 5 50
9 6 142
9 7 35
9 8 40
